50	3
25	200
10
30
10
10
10
20
20
20
10
10
10
20
30
10
40
40
20
20
10
10
20
20
10
10
40
10
10
20
10
10
20
30
40
20
10
10
20
30
20
10
10
20
10
10
10
30
10
10
10
10
40	50	0	1236	0	0
45	68	0	1127	90	1
45	70	0	1125	90	3
42	66	0	1129	90	3
42	68	727	782	90	3
42	65	0	1130	90	2
40	69	0	1127	90	3
40	66	0	1130	90	1
38	68	255	324	90	1
38	70	534	605	90	1
35	66	0	1129	90	1
35	69	448	505	90	3
25	85	0	1107	90	3
22	75	30	92	90	1
22	85	0	1106	90	1
20	80	384	429	90	2
20	85	0	1105	90	1
18	75	0	1112	90	1
15	75	0	1110	90	2
15	80	0	1106	90	3
30	50	0	1136	90	3
30	52	0	1135	90	2
28	52	0	1133	90	1
28	55	732	777	90	2
25	50	0	1131	90	1
25	52	169	224	90	3
25	55	0	1130	90	1
23	52	0	1128	90	2
23	55	0	1128	90	1
20	50	0	1126	90	2
20	55	0	1125	90	2
10	35	0	1112	90	2
10	40	0	1114	90	1
8	40	0	1112	90	2
8	45	0	1113	90	3
5	35	0	1107	90	3
5	45	0	1110	90	3
2	40	0	1106	90	1
0	40	479	522	90	2
0	45	0	1105	90	1
35	30	0	1125	90	3
35	32	0	1127	90	2
33	32	0	1126	90	3
33	35	0	1129	90	1
32	30	359	412	90	2
30	30	0	1123	90	1
30	32	0	1125	90	2
30	35	0	1127	90	3
28	30	0	1122	90	1
28	35	0	1126	90	3
26	32	0	1123	90	1
14	76	0	1236	5	4
33	66	0	1236	5	4
36	74	0	1236	5	4
0	0	0	
0	0	1	
0	1	0	
0	0	1	
0	1	0	
0	0	1	
0	0	0	
0	0	0	
0	0	0	
0	0	0	
0	1	0	
1	0	0	
0	0	0	
0	0	0	
1	0	0	
0	0	0	
0	0	0	
1	0	0	
1	0	0	
0	1	0	
0	1	0	
0	0	0	
0	1	0	
0	0	0	
0	1	0	
0	0	0	
0	1	0	
0	0	0	
0	1	0	
0	1	0	
0	1	0	
0	0	0	
0	1	0	
1	0	0	
0	1	0	
1	0	0	
0	0	0	
1	0	0	
0	0	0	
0	1	0	
0	1	0	
0	1	0	
0	0	0	
0	1	0	
0	0	0	
0	1	0	
0	1	0	
0	0	0	
0	1	0	
0	0	0	
